inputs/input1.lp
Minimize
obj: 3x1 + 2x2 + x3 + 5x4 + 5x5 + 4x6
Subject To
c1: x1 + x2 <= 45
c2: x3 + x4 <= 60
c3: x5 + x6 <= 35
c4: x1 + x3 + x5 >= 50
c5: x2 + x4 + x6 >= 60
Bounds
x1 >= 0
x2 >= 0
x3 >= 0
x4 >= 0
x5 >= 0
x6 >= 0
Generals
x1 x2 x3 x4 x5 x6
End
