inputs/input1
Min Z = 3x1 + 2x2 + x3 + 5x4 + 5x5 + 4x6
x1 + x2 <= 45
x3 + x4 <= 60
x5 + x6 <= 35
x1 + x3 + x5 >= 50
x2 + x4 + x6 >= 60